c 1 APL
c 2 mainAPL
c 3 Java
c 4 mainJava
c 5 reform
c 6 jedi
c 7 jak2java
c 8 bali
c 9 Xml
c 10 xc
c 11 xak
c 12 cpp
c 13 Gui
c 14 mainGUI
c 15 me
c 16 mmatrix
c 17 guidsl
c 18 web
c 19 drc
c 20 bc
c 21 bcjak2java
c 22 aj
c 23 jak2aj
p cnf 23 35
1 0
-2 1 0
-1 2 0
-3 2 0
-2 3 0
-4 3 0
-3 4 0
-5 4 0
-6 4 0
-7 4 0
-4 7 0
-8 4 0
-4 8 0
-9 2 0
-10 9 0
-11 9 0
-9 10 11 0
-11 -10 0
-12 2 0
-13 2 0
-14 13 0
-13 14 0
-15 14 0
-16 14 0
-17 14 0
-18 14 0
-19 2 0
-20 2 0
-21 20 0
-20 21 0
-22 2 0
-23 22 0
-22 23 0
-20 16 0
-15 16 0
